NAME : n100w120.003.909.tour
COMMENT : Length = 909
COMMENT : Found by LKH [Keld Helsgaun] Tue May  2 05:52:32 2017
TYPE : TOUR
DIMENSION : 101
TOUR_SECTION
1
65
41
83
29
98
30
28
94
37
35
20
99
66
32
54
79
8
31
33
95
39
69
12
86
10
84
82
77
70
34
25
90
85
55
18
53
4
47
87
52
27
45
6
80
60
92
15
58
5
51
19
43
23
40
101
64
71
74
100
38
97
3
56
62
11
76
44
63
91
42
16
88
59
9
26
75
2
24
21
49
57
22
46
93
61
68
7
89
14
73
72
96
13
67
81
48
17
78
50
36
-1
EOF
